\ Model ExpressAirCargo
\ LP format - for model browsing. Use MPS format to capture full model detail.
\ Signature: 0xceaa2b2d3af84759
Minimize
  10 X_0_1_0 + 10 X_0_1_1 + 10 X_0_1_2 + 10 X_0_1_3 + 10 X_0_1_4
   + 10 X_0_2_0 + 10 X_0_2_1 + 10 X_0_2_2 + 10 X_0_2_3 + 10 X_0_2_4
   + 10 X_1_0_0 + 10 X_1_0_1 + 10 X_1_0_2 + 10 X_1_0_3 + 10 X_1_0_4
   + 10 X_1_2_0 + 10 X_1_2_1 + 10 X_1_2_2 + 10 X_1_2_3 + 10 X_1_2_4
   + 10 X_2_0_0 + 10 X_2_0_1 + 10 X_2_0_2 + 10 X_2_0_3 + 10 X_2_0_4
   + 10 X_2_1_0 + 10 X_2_1_1 + 10 X_2_1_2 + 10 X_2_1_3 + 10 X_2_1_4
   - 10 W_0_1_0 - 10 W_0_1_1 - 10 W_0_1_2 - 10 W_0_1_3 - 10 W_0_1_4
   - 10 W_0_2_0 - 10 W_0_2_1 - 10 W_0_2_2 - 10 W_0_2_3 - 10 W_0_2_4
   - 10 W_1_0_0 - 10 W_1_0_1 - 10 W_1_0_2 - 10 W_1_0_3 - 10 W_1_0_4
   - 10 W_1_2_0 - 10 W_1_2_1 - 10 W_1_2_2 - 10 W_1_2_3 - 10 W_1_2_4
   - 10 W_2_0_0 - 10 W_2_0_1 - 10 W_2_0_2 - 10 W_2_0_3 - 10 W_2_0_4
   - 10 W_2_1_0 - 10 W_2_1_1 - 10 W_2_1_2 - 10 W_2_1_3 - 10 W_2_1_4
   + 7 U_0_1_0 + 7 U_0_1_1 + 7 U_0_1_2 + 7 U_0_1_3 + 7 U_0_1_4 + 6 U_0_2_0
   + 6 U_0_2_1 + 6 U_0_2_2 + 6 U_0_2_3 + 6 U_0_2_4 + 7 U_1_0_0 + 7 U_1_0_1
   + 7 U_1_0_2 + 7 U_1_0_3 + 7 U_1_0_4 + 3 U_1_2_0 + 3 U_1_2_1 + 3 U_1_2_2
   + 3 U_1_2_3 + 3 U_1_2_4 + 6 U_2_0_0 + 6 U_2_0_1 + 6 U_2_0_2 + 6 U_2_0_3
   + 6 U_2_0_4 + 3 U_2_1_0 + 3 U_2_1_1 + 3 U_2_1_2 + 3 U_2_1_3 + 3 U_2_1_4
Subject To
 total_fleet_size_0: W_0_1_0 + W_0_2_0 + W_1_0_0 + W_1_2_0 + W_2_0_0
   + W_2_1_0 + U_0_1_0 + U_0_2_0 + U_1_0_0 + U_1_2_0 + U_2_0_0 + U_2_1_0
   = 1150
 total_fleet_size_1: W_0_1_1 + W_0_2_1 + W_1_0_1 + W_1_2_1 + W_2_0_1
   + W_2_1_1 + U_0_1_1 + U_0_2_1 + U_1_0_1 + U_1_2_1 + U_2_0_1 + U_2_1_1
   = 1150
 total_fleet_size_2: W_0_1_2 + W_0_2_2 + W_1_0_2 + W_1_2_2 + W_2_0_2
   + W_2_1_2 + U_0_1_2 + U_0_2_2 + U_1_0_2 + U_1_2_2 + U_2_0_2 + U_2_1_2
   = 1150
 total_fleet_size_3: W_0_1_3 + W_0_2_3 + W_1_0_3 + W_1_2_3 + W_2_0_3
   + W_2_1_3 + U_0_1_3 + U_0_2_3 + U_1_0_3 + U_1_2_3 + U_2_0_3 + U_2_1_3
   = 1150
 total_fleet_size_4: W_0_1_4 + W_0_2_4 + W_1_0_4 + W_1_2_4 + W_2_0_4
   + W_2_1_4 + U_0_1_4 + U_0_2_4 + U_1_0_4 + U_1_2_4 + U_2_0_4 + U_2_1_4
   = 1150
 aircraft_flow_0_1: W_0_1_1 + W_0_2_1 - W_1_0_0 - W_2_0_0 + U_0_1_1
   + U_0_2_1 - U_1_0_0 - U_2_0_0 = 0
 aircraft_flow_1_1: - W_0_1_0 + W_1_0_1 + W_1_2_1 - W_2_1_0 - U_0_1_0
   + U_1_0_1 + U_1_2_1 - U_2_1_0 = 0
 aircraft_flow_2_1: - W_0_2_0 - W_1_2_0 + W_2_0_1 + W_2_1_1 - U_0_2_0
   - U_1_2_0 + U_2_0_1 + U_2_1_1 = 0
 aircraft_flow_0_2: W_0_1_2 + W_0_2_2 - W_1_0_1 - W_2_0_1 + U_0_1_2
   + U_0_2_2 - U_1_0_1 - U_2_0_1 = 0
 aircraft_flow_1_2: - W_0_1_1 + W_1_0_2 + W_1_2_2 - W_2_1_1 - U_0_1_1
   + U_1_0_2 + U_1_2_2 - U_2_1_1 = 0
 aircraft_flow_2_2: - W_0_2_1 - W_1_2_1 + W_2_0_2 + W_2_1_2 - U_0_2_1
   - U_1_2_1 + U_2_0_2 + U_2_1_2 = 0
 aircraft_flow_0_3: W_0_1_3 + W_0_2_3 - W_1_0_2 - W_2_0_2 + U_0_1_3
   + U_0_2_3 - U_1_0_2 - U_2_0_2 = 0
 aircraft_flow_1_3: - W_0_1_2 + W_1_0_3 + W_1_2_3 - W_2_1_2 - U_0_1_2
   + U_1_0_3 + U_1_2_3 - U_2_1_2 = 0
 aircraft_flow_2_3: - W_0_2_2 - W_1_2_2 + W_2_0_3 + W_2_1_3 - U_0_2_2
   - U_1_2_2 + U_2_0_3 + U_2_1_3 = 0
 aircraft_flow_0_4: W_0_1_4 + W_0_2_4 - W_1_0_3 - W_2_0_3 + U_0_1_4
   + U_0_2_4 - U_1_0_3 - U_2_0_3 = 0
 aircraft_flow_1_4: - W_0_1_3 + W_1_0_4 + W_1_2_4 - W_2_1_3 - U_0_1_3
   + U_1_0_4 + U_1_2_4 - U_2_1_3 = 0
 aircraft_flow_2_4: - W_0_2_3 - W_1_2_3 + W_2_0_4 + W_2_1_4 - U_0_2_3
   - U_1_2_3 + U_2_0_4 + U_2_1_4 = 0
 weekend_aircraft_flow_0_0: W_0_1_0 + W_0_2_0 - W_1_0_4 - W_2_0_4 + U_0_1_0
   + U_0_2_0 - U_1_0_4 - U_2_0_4 = 0
 weekend_aircraft_flow_1_0: - W_0_1_4 + W_1_0_0 + W_1_2_0 - W_2_1_4
   - U_0_1_4 + U_1_0_0 + U_1_2_0 - U_2_1_4 = 0
 weekend_aircraft_flow_2_0: - W_0_2_4 - W_1_2_4 + W_2_0_0 + W_2_1_0
   - U_0_2_4 - U_1_2_4 + U_2_0_0 + U_2_1_0 = 0
 cargo_flow_0_1_1: - X_0_1_0 + X_0_1_1 + W_0_1_0 = 200
 cargo_flow_0_2_1: - X_0_2_0 + X_0_2_1 + W_0_2_0 = 50
 cargo_flow_1_0_1: - X_1_0_0 + X_1_0_1 + W_1_0_0 = 25
 cargo_flow_1_2_1: - X_1_2_0 + X_1_2_1 + W_1_2_0 = 25
 cargo_flow_2_0_1: - X_2_0_0 + X_2_0_1 + W_2_0_0 = 40
 cargo_flow_2_1_1: - X_2_1_0 + X_2_1_1 + W_2_1_0 = 200
 cargo_flow_0_1_2: - X_0_1_1 + X_0_1_2 + W_0_1_1 = 100
 cargo_flow_0_2_2: - X_0_2_1 + X_0_2_2 + W_0_2_1 = 50
 cargo_flow_1_0_2: - X_1_0_1 + X_1_0_2 + W_1_0_1 = 25
 cargo_flow_1_2_2: - X_1_2_1 + X_1_2_2 + W_1_2_1 = 25
 cargo_flow_2_0_2: - X_2_0_1 + X_2_0_2 + W_2_0_1 = 40
 cargo_flow_2_1_2: - X_2_1_1 + X_2_1_2 + W_2_1_1 = 300
 cargo_flow_0_1_3: - X_0_1_2 + X_0_1_3 + W_0_1_2 = 400
 cargo_flow_0_2_3: - X_0_2_2 + X_0_2_3 + W_0_2_2 = 50
 cargo_flow_1_0_3: - X_1_0_2 + X_1_0_3 + W_1_0_2 = 25
 cargo_flow_1_2_3: - X_1_2_2 + X_1_2_3 + W_1_2_2 = 25
 cargo_flow_2_0_3: - X_2_0_2 + X_2_0_3 + W_2_0_2 = 40
 cargo_flow_2_1_3: - X_2_1_2 + X_2_1_3 + W_2_1_2 = 200
 cargo_flow_0_1_4: - X_0_1_3 + X_0_1_4 + W_0_1_3 = 300
 cargo_flow_0_2_4: - X_0_2_3 + X_0_2_4 + W_0_2_3 = 50
 cargo_flow_1_0_4: - X_1_0_3 + X_1_0_4 + W_1_0_3 = 25
 cargo_flow_1_2_4: - X_1_2_3 + X_1_2_4 + W_1_2_3 = 25
 cargo_flow_2_0_4: - X_2_0_3 + X_2_0_4 + W_2_0_3 = 40
 cargo_flow_2_1_4: - X_2_1_3 + X_2_1_4 + W_2_1_3 = 400
 cargo_flow_0_1_0: X_0_1_0 - X_0_1_4 + W_0_1_4 = 100
 cargo_flow_0_2_0: X_0_2_0 - X_0_2_4 + W_0_2_4 = 50
 cargo_flow_1_0_0: X_1_0_0 - X_1_0_4 + W_1_0_4 = 25
 cargo_flow_1_2_0: X_1_2_0 - X_1_2_4 + W_1_2_4 = 25
 cargo_flow_2_0_0: X_2_0_0 - X_2_0_4 + W_2_0_4 = 40
 cargo_flow_2_1_0: X_2_1_0 - X_2_1_4 + W_2_1_4 = 400
 load_limit_0_1_0: - X_0_1_0 + W_0_1_0 <= 0
 load_limit_0_1_1: - X_0_1_1 + W_0_1_1 <= 0
 load_limit_0_1_2: - X_0_1_2 + W_0_1_2 <= 0
 load_limit_0_1_3: - X_0_1_3 + W_0_1_3 <= 0
 load_limit_0_1_4: - X_0_1_4 + W_0_1_4 <= 0
 load_limit_0_2_0: - X_0_2_0 + W_0_2_0 <= 0
 load_limit_0_2_1: - X_0_2_1 + W_0_2_1 <= 0
 load_limit_0_2_2: - X_0_2_2 + W_0_2_2 <= 0
 load_limit_0_2_3: - X_0_2_3 + W_0_2_3 <= 0
 load_limit_0_2_4: - X_0_2_4 + W_0_2_4 <= 0
 load_limit_1_0_0: - X_1_0_0 + W_1_0_0 <= 0
 load_limit_1_0_1: - X_1_0_1 + W_1_0_1 <= 0
 load_limit_1_0_2: - X_1_0_2 + W_1_0_2 <= 0
 load_limit_1_0_3: - X_1_0_3 + W_1_0_3 <= 0
 load_limit_1_0_4: - X_1_0_4 + W_1_0_4 <= 0
 load_limit_1_2_0: - X_1_2_0 + W_1_2_0 <= 0
 load_limit_1_2_1: - X_1_2_1 + W_1_2_1 <= 0
 load_limit_1_2_2: - X_1_2_2 + W_1_2_2 <= 0
 load_limit_1_2_3: - X_1_2_3 + W_1_2_3 <= 0
 load_limit_1_2_4: - X_1_2_4 + W_1_2_4 <= 0
 load_limit_2_0_0: - X_2_0_0 + W_2_0_0 <= 0
 load_limit_2_0_1: - X_2_0_1 + W_2_0_1 <= 0
 load_limit_2_0_2: - X_2_0_2 + W_2_0_2 <= 0
 load_limit_2_0_3: - X_2_0_3 + W_2_0_3 <= 0
 load_limit_2_0_4: - X_2_0_4 + W_2_0_4 <= 0
 load_limit_2_1_0: - X_2_1_0 + W_2_1_0 <= 0
 load_limit_2_1_1: - X_2_1_1 + W_2_1_1 <= 0
 load_limit_2_1_2: - X_2_1_2 + W_2_1_2 <= 0
 load_limit_2_1_3: - X_2_1_3 + W_2_1_3 <= 0
 load_limit_2_1_4: - X_2_1_4 + W_2_1_4 <= 0
Bounds
Generals
 X_0_1_0 X_0_1_1 X_0_1_2 X_0_1_3 X_0_1_4 X_0_2_0 X_0_2_1 X_0_2_2 X_0_2_3
 X_0_2_4 X_1_0_0 X_1_0_1 X_1_0_2 X_1_0_3 X_1_0_4 X_1_2_0 X_1_2_1 X_1_2_2
 X_1_2_3 X_1_2_4 X_2_0_0 X_2_0_1 X_2_0_2 X_2_0_3 X_2_0_4 X_2_1_0 X_2_1_1
 X_2_1_2 X_2_1_3 X_2_1_4 W_0_1_0 W_0_1_1 W_0_1_2 W_0_1_3 W_0_1_4 W_0_2_0
 W_0_2_1 W_0_2_2 W_0_2_3 W_0_2_4 W_1_0_0 W_1_0_1 W_1_0_2 W_1_0_3 W_1_0_4
 W_1_2_0 W_1_2_1 W_1_2_2 W_1_2_3 W_1_2_4 W_2_0_0 W_2_0_1 W_2_0_2 W_2_0_3
 W_2_0_4 W_2_1_0 W_2_1_1 W_2_1_2 W_2_1_3 W_2_1_4 U_0_1_0 U_0_1_1 U_0_1_2
 U_0_1_3 U_0_1_4 U_0_2_0 U_0_2_1 U_0_2_2 U_0_2_3 U_0_2_4 U_1_0_0 U_1_0_1
 U_1_0_2 U_1_0_3 U_1_0_4 U_1_2_0 U_1_2_1 U_1_2_2 U_1_2_3 U_1_2_4 U_2_0_0
 U_2_0_1 U_2_0_2 U_2_0_3 U_2_0_4 U_2_1_0 U_2_1_1 U_2_1_2 U_2_1_3 U_2_1_4
End
